c description: Random 3-CNF over 15 variables and 65 clauses
c generator: CNFgen (0.9.0)
c copyright: (C) 2012-2020 Massimo Lauria <massimo.lauria@uniroma1.it>
c url: https://massimolauria.net/cnfgen
c
p cnf 15 65
1 -7 8 0
4 14 15 0
6 -8 -15 0
-5 -9 -11 0
2 5 -7 0
-6 -12 14 0
5 6 -8 0
-9 10 -12 0
5 9 -11 0
-4 11 -15 0
2 -10 14 0
2 -8 -13 0
-1 -4 13 0
1 -10 -13 0
-2 5 9 0
4 -7 13 0
-4 -6 -8 0
-3 9 15 0
1 3 -7 0
-4 -9 -11 0
2 4 5 0
4 7 10 0
1 6 -12 0
1 5 -6 0
5 11 13 0
-1 -4 -11 0
-4 -9 15 0
7 -11 15 0
-2 3 12 0
3 5 -14 0
1 3 -4 0
-1 10 -15 0
-10 11 -13 0
-8 -11 12 0
6 -7 12 0
1 -4 5 0
2 8 15 0
4 6 -9 0
-3 7 14 0
2 3 -6 0
-4 8 9 0
-8 -9 -10 0
3 -4 14 0
-3 -7 -9 0
-6 8 -14 0
10 12 -14 0
10 -12 -13 0
-4 11 -14 0
-5 -7 -8 0
2 -6 -12 0
-3 -14 -15 0
1 -6 15 0
3 -5 8 0
-1 7 8 0
-4 -6 -11 0
2 -4 -12 0
-9 12 -13 0
-7 8 12 0
2 7 -13 0
4 -6 -15 0
4 9 -15 0
-7 11 13 0
1 10 -15 0
12 -14 15 0
-1 -13 -15 0